\ENCODING=ISO-8859-1
\Problem name: IloCplex

Maximize
 obj: - 0.102981029810298 v22 - 0.105691056910569 v17 - 0.0542005420054201 v2
      - 0.281842818428184 v0 - 0.18970189701897 v1 - 0.040650406504065 v18 - v6
      + 1003 f2315 - 0.777777777777778 v23 + 2 f2322 + f239 + 1000 f2324
      + f2314 + f2312 + 1001 f2215 + 12 f1715 + f119 - 0.043360433604336 v11
      + f1121 + 1000 f69 + 1000 f06 + 1000 f010 + f1820 + f813
      - 0.0785907859078591 v8 + 1000 f023 + f117 + 1001 f615 + 1000 f015
      + 1000 f02 + f2317 + 2 f07 + f25 + 999.894308943089 v5 + 1000 f04
      + 999.883468834688 v4 + f018 + f24 + 1000 f01 + f188 + f816 + 3 f08 + f23
      + 999.845528455285 v3 + 1000 f017 + f09
Subject To
 c1:  v24 <= 0
 c2:  v22 <= 1
 c3:  v22 >= 1
 c4:  v21 <= 0
 c5:  v20 <= 0
 c6:  v17 <= 1
 c7:  v17 >= 1
 c8:  v2 <= 1
 c9:  v2 >= 1
 c10: v0 <= 0
 c11: v1 <= 1
 c12: v1 >= 1
 c13: v18 <= 1
 c14: v18 >= 1
 c15: v6 <= 1
 c16: v6 >= 1
 c17: v7 <= 0
 c18: v9 <= 0
 c19: v15 <= 0
 c20: v16 <= 0
 c21: v19 <= 0
 c22: v12 <= 0
 c23: v13 <= 0
 c24: v10 <= 0
 c25: v14 <= 0
 c26: v15 + f2315 - v23 <= 1
 c27: - v15 + f2315 + v23 <= 1
 c28: v22 - v23 + f2322 <= 1
 c29: - v22 + v23 + f2322 <= 1
 c30: v9 - v23 + f239 <= 1
 c31: - v9 + v23 + f239 <= 1
 c32: v24 - v23 + f2324 <= 1
 c33: - v24 + v23 + f2324 <= 1
 c34: v14 - v23 + f2314 <= 1
 c35: - v14 + v23 + f2314 <= 1
 c36: v12 - v23 + f2312 <= 1
 c37: - v12 + v23 + f2312 <= 1
 c38: - v22 + v15 + f2215 <= 1
 c39: v22 - v15 + f2215 <= 1
 c40: - v17 + v15 + f1715 <= 1
 c41: v17 - v15 + f1715 <= 1
 c42: v9 + f119 - v11 <= 1
 c43: - v9 + f119 + v11 <= 1
 c44: v21 - v11 + f1121 <= 1
 c45: - v21 + v11 + f1121 <= 1
 c46: - v6 + v9 + f69 <= 1
 c47: v6 - v9 + f69 <= 1
 c48: - v0 + v6 + f06 <= 1
 c49: v0 - v6 + f06 <= 1
 c50: - v0 + v10 + f010 <= 1
 c51: v0 - v10 + f010 <= 1
 c52: v20 - v18 + f1820 <= 1
 c53: - v20 + v18 + f1820 <= 1
 c54: v13 + f813 - v8 <= 1
 c55: - v13 + f813 + v8 <= 1
 c56: - v0 + v23 + f023 <= 1
 c57: v0 - v23 + f023 <= 1
 c58: v7 - v11 + f117 <= 1
 c59: - v7 + v11 + f117 <= 1
 c60: - v6 + v15 + f615 <= 1
 c61: v6 - v15 + f615 <= 1
 c62: - v0 + v15 + f015 <= 1
 c63: v0 - v15 + f015 <= 1
 c64: v2 - v0 + f02 <= 1
 c65: - v2 + v0 + f02 <= 1
 c66: v17 - v23 + f2317 <= 1
 c67: - v17 + v23 + f2317 <= 1
 c68: - v0 + v7 + f07 <= 1
 c69: v0 - v7 + f07 <= 1
 c70: - v2 + f25 + v5 <= 1
 c71: v2 + f25 - v5 <= 1
 c72: - v0 + f04 + v4 <= 1
 c73: v0 + f04 - v4 <= 1
 c74: - v0 + v18 + f018 <= 1
 c75: v0 - v18 + f018 <= 1
 c76: - v2 + v4 + f24 <= 1
 c77: v2 - v4 + f24 <= 1
 c78: - v0 + v1 + f01 <= 1
 c79: v0 - v1 + f01 <= 1
 c80: - v18 + v8 + f188 <= 1
 c81: v18 - v8 + f188 <= 1
 c82: v16 - v8 + f816 <= 1
 c83: - v16 + v8 + f816 <= 1
 c84: - v0 + v8 + f08 <= 1
 c85: v0 - v8 + f08 <= 1
 c86: - v2 + f23 + v3 <= 1
 c87: v2 + f23 - v3 <= 1
 c88: v17 - v0 + f017 <= 1
 c89: - v17 + v0 + f017 <= 1
 c90: - v0 + v9 + f09 <= 1
 c91: v0 - v9 + f09 <= 1
Bounds
 0 <= v24 <= 1
 0 <= v22 <= 1
 0 <= v21 <= 1
 0 <= v20 <= 1
 0 <= v17 <= 1
 0 <= v2 <= 1
 0 <= v0 <= 1
 0 <= v1 <= 1
 0 <= v18 <= 1
 0 <= v6 <= 1
 0 <= v7 <= 1
 0 <= v9 <= 1
 0 <= v15 <= 1
 0 <= v16 <= 1
 0 <= v19 <= 1
 0 <= v12 <= 1
 0 <= v13 <= 1
 0 <= v10 <= 1
 0 <= v14 <= 1
 0 <= f2315 <= 1
 0 <= v23 <= 1
 0 <= f2322 <= 1
 0 <= f239 <= 1
 0 <= f2324 <= 1
 0 <= f2314 <= 1
 0 <= f2312 <= 1
 0 <= f2215 <= 1
 0 <= f1715 <= 1
 0 <= f119 <= 1
 0 <= v11 <= 1
 0 <= f1121 <= 1
 0 <= f69 <= 1
 0 <= f06 <= 1
 0 <= f010 <= 1
 0 <= f1820 <= 1
 0 <= f813 <= 1
 0 <= v8 <= 1
 0 <= f023 <= 1
 0 <= f117 <= 1
 0 <= f615 <= 1
 0 <= f015 <= 1
 0 <= f02 <= 1
 0 <= f2317 <= 1
 0 <= f07 <= 1
 0 <= f25 <= 1
 0 <= v5 <= 1
 0 <= f04 <= 1
 0 <= v4 <= 1
 0 <= f018 <= 1
 0 <= f24 <= 1
 0 <= f01 <= 1
 0 <= f188 <= 1
 0 <= f816 <= 1
 0 <= f08 <= 1
 0 <= f23 <= 1
 0 <= v3 <= 1
 0 <= f017 <= 1
 0 <= f09 <= 1
End
